Instance name: /home/cuong/CLionProjects/uMV-FSTSP/50_dis_rand_ins/v70
Write arg val: 1

drone speed: 1 miles/minute
uav non-eligible customer: 9 11 
Printing tau:
0 14.486 34.6948 39.9182 40.3846 35.5663 33.6657 47.6474 68.3896 85.3384 76.3987 0 
14.486 0 49.1808 54.4041 39.8209 35.0026 33.102 33.1614 53.9037 84.7747 75.835 14.486 
34.6948 49.1808 0 5.22335 41.9021 32.5903 56.6474 82.3422 103.084 53.497 42.5905 34.6948 
39.9182 54.4041 5.22335 0 47.1254 37.8137 61.8707 87.5655 108.308 58.7203 45.6056 39.9182 
40.3846 39.8209 41.9021 47.1254 0 9.31174 14.7453 40.4401 61.1824 44.9537 36.0141 40.3846 
35.5663 35.0026 32.5903 37.8137 9.31174 0 24.0571 49.7518 70.4941 49.7721 40.8325 35.5663 
33.6657 33.102 56.6474 61.8707 14.7453 24.0571 0 25.6948 46.4371 51.6726 42.733 33.6657 
47.6474 33.1614 82.3422 87.5655 40.4401 49.7518 25.6948 0 20.7423 52.1056 60.8544 47.6474 
68.3896 53.9037 103.084 108.308 61.1824 70.4941 46.4371 20.7423 0 49.774 81.5966 68.3896 
85.3384 84.7747 53.497 58.7203 44.9537 49.7721 51.6726 52.1056 49.774 0 32.0092 85.3384 
76.3987 75.835 42.5905 45.6056 36.0141 40.8325 42.733 60.8544 81.5966 32.0092 0 76.3987 
0 0 0 0 0 0 0 0 0 0 0 0 
Printing tau_prime:
0 3.84408 12.8454 13.3683 10.8778 9.44743 10.6572 15.404 20.44 23.1715 20.5587 0 
3.84408 0 15.7409 16.5035 10.7341 10.2712 8.99803 12.3436 17.0422 22.5084 21.4076 3.84408 
12.8454 15.7409 0 1.59923 11.247 8.65438 15.021 21.8348 27.3384 19.696 12.6495 12.8454 
13.3683 16.5035 1.59923 0 12.7522 10.1064 16.4236 23.2283 28.7473 21.2517 14.0146 13.3683 
10.8778 10.7341 11.247 12.7522 0 2.78013 4.29672 10.8897 16.2737 12.3103 10.9772 10.8778 
9.44743 10.2712 8.65438 10.1064 2.78013 0 6.39897 13.207 18.6926 14.3149 11.2204 9.44743 
10.6572 8.99803 15.021 16.4236 4.29672 6.39897 0 6.81433 12.3238 13.7272 14.6737 10.6572 
15.404 12.3436 21.8348 23.2283 10.8897 13.207 6.81433 0 5.53476 15.7924 19.7838 15.404 
20.44 17.0422 27.3384 28.7473 16.2737 18.6926 12.3238 5.53476 0 18.6303 24.1947 20.44 
23.1715 22.5084 19.696 21.2517 12.3103 14.3149 13.7272 15.7924 18.6303 0 8.81252 23.1715 
20.5587 21.4076 12.6495 14.0146 10.9772 11.2204 14.6737 19.7838 24.1947 8.81252 0 20.5587 
0 0 0 0 0 0 0 0 0 0 0 0 
Version identifier: 22.1.1.0 | 2022-11-28 | 9160aff4d
CPXPARAM_MIP_Tolerances_Integrality              0
Tried aggregator 1 time.
MIP Presolve eliminated 1 rows and 12 columns.
MIP Presolve modified 20 coefficients.
Reduced MIP has 122 rows, 120 columns, and 510 nonzeros.
Reduced MIP has 110 binaries, 0 generals, 0 SOSs, and 0 indicators.
Presolve time = 0.00 sec. (0.27 ticks)
Found incumbent of value 537.409500 after 0.00 sec. (0.75 ticks)
Probing time = 0.00 sec. (0.26 ticks)
Cover probing fixed 0 vars, tightened 10 bounds.
Tried aggregator 1 time.
Detecting symmetries...
MIP Presolve eliminated 10 rows and 0 columns.
MIP Presolve modified 180 coefficients.
Reduced MIP has 112 rows, 120 columns, and 490 nonzeros.
Reduced MIP has 110 binaries, 0 generals, 0 SOSs, and 0 indicators.
Presolve time = 0.00 sec. (0.35 ticks)
Probing time = 0.00 sec. (0.26 ticks)
Clique table members: 67.
MIP emphasis: balance optimality and feasibility.
MIP search method: dynamic search.
Parallel mode: deterministic, using up to 20 threads.
Root relaxation solution time = 0.00 sec. (0.23 ticks)

        Nodes                                         Cuts/
   Node  Left     Objective  IInf  Best Integer    Best Bound    ItCnt     Gap

*     0+    0                          537.4095        0.0000           100.00%
      0     0      207.3624    19      537.4095      207.3624       29   61.41%
*     0+    0                          287.2897      207.3624            27.82%
      0     0      264.6686    18      287.2897      Cuts: 48       49    7.87%
      0     0      264.6686    18      287.2897      Fract: 1       51    7.87%
Detecting symmetries...

Repeating presolve.
Tried aggregator 1 time.
MIP Presolve eliminated 38 rows and 52 columns.
Reduced MIP has 74 rows, 68 columns, and 272 nonzeros.
Reduced MIP has 58 binaries, 0 generals, 0 SOSs, and 0 indicators.
Presolve time = 0.00 sec. (0.15 ticks)
Probing time = 0.00 sec. (0.10 ticks)
Cover probing fixed 0 vars, tightened 14 bounds.
Tried aggregator 1 time.
Detecting symmetries...
MIP Presolve modified 100 coefficients.
Reduced MIP has 74 rows, 68 columns, and 272 nonzeros.
Reduced MIP has 58 binaries, 0 generals, 0 SOSs, and 0 indicators.
Presolve time = 0.00 sec. (0.17 ticks)
Represolve time = 0.00 sec. (0.57 ticks)
Probing time = 0.00 sec. (0.10 ticks)
Cover probing fixed 0 vars, tightened 2 bounds.
Clique table members: 48.
MIP emphasis: balance optimality and feasibility.
MIP search method: dynamic search.
Parallel mode: deterministic, using up to 20 threads.
Root relaxation solution time = 0.00 sec. (0.16 ticks)

        Nodes                                         Cuts/
   Node  Left     Objective  IInf  Best Integer    Best Bound    ItCnt     Gap

*     0+    0                          287.2897      270.2557             5.93%
      0     0      264.6686    18      287.2897      270.2557       79    5.93%
      0     0      264.6686    18      287.2897      Cuts: 21       92    5.93%
      0     0      264.6686    18      287.2897      Cuts: 10       94    5.93%
      0     0        cutoff            287.2897      287.2897       94    0.00%
Elapsed time = 0.14 sec. (9.00 ticks, tree = 0.01 MB, solutions = 2)

Clique cuts applied:  3
Implied bound cuts applied:  6
Mixed integer rounding cuts applied:  2
Multi commodity flow cuts applied:  2
Gomory fractional cuts applied:  1

Root node processing (before b&c):
  Real time             =    0.14 sec. (9.00 ticks)
Parallel b&c, 20 threads:
  Real time             =    0.00 sec. (0.00 ticks)
  Sync time (average)   =    0.00 sec.
  Wait time (average)   =    0.00 sec.
                          ------------
Total (root+branch&cut) =    0.14 sec. (9.00 ticks)

TSP solution for this instance: 0 2 3 10 9 8 7 6 4 5 1 11 
12
Warmstart X[1][0] == 1
Warmstart X[2][2] == 1
Warmstart X[3][3] == 1
Warmstart X[4][10] == 1
Warmstart X[5][9] == 1
Warmstart X[6][8] == 1
Warmstart X[7][7] == 1
Warmstart X[8][6] == 1
Warmstart X[9][4] == 1
Warmstart X[10][5] == 1
Warmstart X[11][1] == 1
---------------------------------------------
Calculate max stage gap for sortie.... 
Stage gap of 4 with smallest length = 20.8934 violated endurance constraint!
---------------------------------------------
Variable z[1][5] was set to 0.
Variable z[1][6] was set to 0.
Variable z[1][7] was set to 0.
Variable z[1][8] was set to 0.
Variable z[1][9] was set to 0.
Variable z[1][10] was set to 0.
Variable z[1][11] was set to 0.
Variable z[1][12] was set to 0.
Variable z[2][6] was set to 0.
Variable z[2][7] was set to 0.
Variable z[2][8] was set to 0.
Variable z[2][9] was set to 0.
Variable z[2][10] was set to 0.
Variable z[2][11] was set to 0.
Variable z[2][12] was set to 0.
Variable z[3][7] was set to 0.
Variable z[3][8] was set to 0.
Variable z[3][9] was set to 0.
Variable z[3][10] was set to 0.
Variable z[3][11] was set to 0.
Variable z[3][12] was set to 0.
Variable z[4][8] was set to 0.
Variable z[4][9] was set to 0.
Variable z[4][10] was set to 0.
Variable z[4][11] was set to 0.
Variable z[4][12] was set to 0.
Variable z[5][9] was set to 0.
Variable z[5][10] was set to 0.
Variable z[5][11] was set to 0.
Variable z[5][12] was set to 0.
Variable z[6][10] was set to 0.
Variable z[6][11] was set to 0.
Variable z[6][12] was set to 0.
Variable z[7][11] was set to 0.
Variable z[7][12] was set to 0.
Variable z[8][12] was set to 0.
Num constraint added = 5346
Warning:  Output names have been modified due to duplicate names or characters invalid in LP format.
Version identifier: 22.1.1.0 | 2022-11-28 | 9160aff4d
CPXPARAM_TimeLimit                               200
CPXPARAM_MIP_Tolerances_Integrality              0
1 of 1 MIP starts provided solutions.
MIP start 'm1' defined initial solution with objective 287.2897.
Tried aggregator 3 times.
MIP Presolve eliminated 7021 rows and 2260 columns.
MIP Presolve modified 2138 coefficients.
Aggregator did 35 substitutions.
Reduced MIP has 1222 rows, 2481 columns, and 43479 nonzeros.
Reduced MIP has 2460 binaries, 0 generals, 0 SOSs, and 0 indicators.
Presolve time = 0.09 sec. (233.85 ticks)
Probing fixed 225 vars, tightened 0 bounds.
Probing changed sense of 4 constraints.
Probing time = 0.03 sec. (78.10 ticks)
Tried aggregator 2 times.
MIP Presolve eliminated 63 rows and 237 columns.
MIP Presolve modified 117 coefficients.
Aggregator did 21 substitutions.
Reduced MIP has 1138 rows, 2223 columns, and 37120 nonzeros.
Reduced MIP has 2202 binaries, 0 generals, 0 SOSs, and 0 indicators.
Presolve time = 0.03 sec. (62.98 ticks)
Probing time = 0.00 sec. (5.20 ticks)
Tried aggregator 1 time.
Detecting symmetries...
Reduced MIP has 1138 rows, 2223 columns, and 37120 nonzeros.
Reduced MIP has 2202 binaries, 0 generals, 0 SOSs, and 0 indicators.
Presolve time = 0.02 sec. (33.20 ticks)
Probing time = 0.00 sec. (5.20 ticks)
Clique table members: 10925.
MIP emphasis: balance optimality and feasibility.
MIP search method: dynamic search.
Parallel mode: deterministic, using up to 20 threads.
Root relaxation solution time = 0.11 sec. (241.55 ticks)

        Nodes                                         Cuts/
   Node  Left     Objective  IInf  Best Integer    Best Bound    ItCnt     Gap

*     0+    0                          287.2897       14.4860            94.96%
      0     0      187.9939   284      287.2897      187.9939       36   34.56%
      0     0      200.7489   307      287.2897      Cuts: 47     1380   30.12%
      0     0      213.7393   310      287.2897      Cuts: 17     3661   25.60%
      0     0      214.5530   328      287.2897      Cuts: 17     4102   25.32%
      0     0      214.6942   319      287.2897       Cuts: 7     4369   25.27%
      0     0      214.7796   303      287.2897    GUBcuts: 1     4474   25.24%
Detecting symmetries...
      0     0      214.7796   303      287.2897    Cliques: 1     4475   25.24%
Detecting symmetries...
      0     2      214.7796   303      287.2897      214.7796     4475   25.24%
Elapsed time = 1.13 sec. (2029.25 ticks, tree = 0.02 MB, solutions = 1)
      8     4      284.7853   179      287.2897      214.7838     7409   25.24%
     14     3      216.4223   363      287.2897      214.7838     5471   25.24%
     17     1        cutoff            287.2897      217.9837    12774   24.12%
    108    13      260.4793   171      287.2897      221.1598    22805   23.02%
    221    20      275.4840   103      287.2897      223.5415    38440   22.19%
    536    66      241.1031   257      287.2897      225.9432    63798   21.35%
    688    43      274.5778   134      287.2897      231.2268    97155   19.51%
   1367   118        cutoff            287.2897      232.8491   139911   18.95%
   1865   152      266.0037   176      287.2897      238.9648   185744   16.82%
*  1961+  174                          284.7963      238.9648            16.09%
*  3717   309      integral     0      276.6145      242.0694   370296   12.49%
   3781   199        cutoff            276.6145      242.0694   374048   12.49%
Elapsed time = 3.83 sec. (5292.42 ticks, tree = 0.46 MB, solutions = 4)
   5499    12      257.9347   152      276.6145      250.0812   518067    9.59%

GUB cover cuts applied:  6
Clique cuts applied:  3
Cover cuts applied:  86
Implied bound cuts applied:  32
Mixed integer rounding cuts applied:  2
Zero-half cuts applied:  22
Lift and project cuts applied:  1
Gomory fractional cuts applied:  1

Root node processing (before b&c):
  Real time             =    1.10 sec. (1987.32 ticks)
Parallel b&c, 20 threads:
  Real time             =    3.68 sec. (4528.78 ticks)
  Sync time (average)   =    1.82 sec.
  Wait time (average)   =    0.00 sec.
                          ------------
Total (root+branch&cut) =    4.79 sec. (6516.10 ticks)
Feasible solution found!
Truck nodes:
Stage 1 at customer 0 with arrival time is: 0
Stage 1 at customer 0 with departure time is: 0
Stage 2 at customer 1 with arrival time is: 14.486
Stage 2 at customer 1 with departure time is: 14.486
Stage 3 at customer 7 with arrival time is: 47.6474
Stage 3 at customer 7 with departure time is: 47.6474
Stage 4 at customer 8 with arrival time is: 68.3897
Stage 4 at customer 8 with departure time is: 68.3897
Stage 5 at customer 9 with arrival time is: 118.164
Stage 5 at customer 9 with departure time is: 118.164
Stage 6 at customer 10 with arrival time is: 150.173
Stage 6 at customer 10 with departure time is: 150.173
Stage 7 at customer 4 with arrival time is: 186.187
Stage 7 at customer 4 with departure time is: 187.187
Stage 8 at customer 5 with arrival time is: 196.499
Stage 8 at customer 5 with departure time is: 198.883
Stage 9 at customer 2 with arrival time is: 231.473
Stage 9 at customer 2 with departure time is: 231.473
Stage 10 at customer 3 with arrival time is: 236.696
Stage 10 at customer 3 with departure time is: 236.696
Stage 11 at customer 2 with arrival time is: 241.92
Stage 11 at customer 2 with departure time is: 241.92
Stage 12 at customer 11 with arrival time is: 276.614
Stage 12 at customer 11 with departure time is: 276.614
Truck arcs:
Arc 1 connecting 0 and 1 with cost 14.486 
Arc 2 connecting 1 and 7 with cost 33.1614 
Arc 3 connecting 7 and 8 with cost 20.7423 
Arc 4 connecting 8 and 9 with cost 49.774 
Arc 5 connecting 9 and 10 with cost 32.0092 
Arc 6 connecting 10 and 4 with cost 36.0141 
Arc 7 connecting 4 and 5 with cost 9.31174 
Arc 8 connecting 5 and 2 with cost 32.5903 
Arc 9 connecting 2 and 3 with cost 5.22335 
Arc 10 connecting 3 and 2 with cost 5.22335 
Arc 11 connecting 2 and 11 with cost 34.6948 
Customer 6 served by drone.
Drone fly from 4 at stage 7 to serve 6 and then fly back to 5 at stage 8. 
Truck arcs during this sortie: 4--->5
Truck travel time from stage 7 to 8 is: 9.31174
Total drone travel time: 10.6957
Drone arrival time: 197.883
Truck arrival time: 196.499
Truck departure time = max(d/a, t/a) plus (sl/sr): 198.883
Done!
-------------------------Re-calculated objective-----------------------
276.614
------------------------------------------------------------------------
Solve time: 4.789
Node 2 was revisited 1 times!
OBJECTIVE VALUE: 276.614, NUMBER OF SORTIES: 1.
Number of revisit: 1
In write mode
